
(set-option :produce-models true)
(set-option :inline-size-limit 10000)

(declare-const var0 String)

(push 1)
(assert (str.in.re var0 (re.* (re.range "\x01" "\xff"))))
(assert (str.in.re var0 (re.++ (re.*? re.allchar) (re.++ (re.union ((_ re.capture 1) (re.++ ((_ re.capture 2) (re.union (re.union (re.union (re.union (re.union (re.++ ((_ re.capture 3) (re.* (str.to.re "s"))) (re.++ ((_ re.capture 4) (re.++ (str.to.re "f") (re.++ (str.to.re "t") (str.to.re "p")))) ((_ re.capture 5) (re.* (str.to.re "s"))))) (re.++ ((_ re.capture 6) (re.++ (str.to.re "h") (re.++ (str.to.re "t") (re.++ (str.to.re "t") (str.to.re "p"))))) ((_ re.capture 7) (re.* (str.to.re "s"))))) (re.++ (str.to.re "m") (re.++ (str.to.re "a") (re.++ (str.to.re "i") (re.++ (str.to.re "l") (re.++ (str.to.re "t") (str.to.re "o"))))))) (re.++ (str.to.re "n") (re.++ (str.to.re "e") (re.++ (str.to.re "w") (str.to.re "s"))))) (re.++ (str.to.re "f") (re.++ (str.to.re "i") (re.++ (str.to.re "l") (str.to.re "e"))))) (re.++ (str.to.re "w") (re.++ (str.to.re "e") (re.++ (str.to.re "b") (re.++ (str.to.re "c") (re.++ (str.to.re "a") (str.to.re "l")))))))) (re.++ (str.to.re ":") ((_ re.capture 8) (re.* (re.inter (re.diff (re.range "\x01" "\xff") (str.to.re "\u{20}")) (re.inter (re.diff (re.range "\x01" "\xff") (str.to.re "\u{0a}")) (re.inter (re.diff (re.range "\x01" "\xff") (str.to.re "\u{0b}")) (re.inter (re.diff (re.range "\x01" "\xff") (str.to.re "\u{0d}")) (re.inter (re.diff (re.range "\x01" "\xff") (str.to.re "\u{09}")) (re.diff (re.range "\x01" "\xff") (str.to.re "\u{0c}")))))))))))) ((_ re.capture 9) (re.++ ((_ re.capture 10) (re.++ (str.to.re "w") (re.++ (str.to.re "w") (re.++ (str.to.re "w") (re.range "\x01" "\xff"))))) ((_ re.capture 11) (re.* (re.inter (re.diff (re.range "\x01" "\xff") (str.to.re "\u{20}")) (re.inter (re.diff (re.range "\x01" "\xff") (str.to.re "\u{0a}")) (re.inter (re.diff (re.range "\x01" "\xff") (str.to.re "\u{0b}")) (re.inter (re.diff (re.range "\x01" "\xff") (str.to.re "\u{0d}")) (re.inter (re.diff (re.range "\x01" "\xff") (str.to.re "\u{09}")) (re.diff (re.range "\x01" "\xff") (str.to.re "\u{0c}")))))))))))) re.all))))	; match!==null
(assert (not (str.in.re ((_ str.extract 1) var0 (re.++ (re.*? re.allchar) (re.++ (re.union ((_ re.capture 1) (re.++ ((_ re.capture 2) (re.union (re.union (re.union (re.union (re.union (re.++ ((_ re.capture 3) (re.* (str.to.re "s"))) (re.++ ((_ re.capture 4) (re.++ (str.to.re "f") (re.++ (str.to.re "t") (str.to.re "p")))) ((_ re.capture 5) (re.* (str.to.re "s"))))) (re.++ ((_ re.capture 6) (re.++ (str.to.re "h") (re.++ (str.to.re "t") (re.++ (str.to.re "t") (str.to.re "p"))))) ((_ re.capture 7) (re.* (str.to.re "s"))))) (re.++ (str.to.re "m") (re.++ (str.to.re "a") (re.++ (str.to.re "i") (re.++ (str.to.re "l") (re.++ (str.to.re "t") (str.to.re "o"))))))) (re.++ (str.to.re "n") (re.++ (str.to.re "e") (re.++ (str.to.re "w") (str.to.re "s"))))) (re.++ (str.to.re "f") (re.++ (str.to.re "i") (re.++ (str.to.re "l") (str.to.re "e"))))) (re.++ (str.to.re "w") (re.++ (str.to.re "e") (re.++ (str.to.re "b") (re.++ (str.to.re "c") (re.++ (str.to.re "a") (str.to.re "l")))))))) (re.++ (str.to.re ":") ((_ re.capture 8) (re.* (re.inter (re.diff (re.range "\x01" "\xff") (str.to.re "\u{20}")) (re.inter (re.diff (re.range "\x01" "\xff") (str.to.re "\u{0a}")) (re.inter (re.diff (re.range "\x01" "\xff") (str.to.re "\u{0b}")) (re.inter (re.diff (re.range "\x01" "\xff") (str.to.re "\u{0d}")) (re.inter (re.diff (re.range "\x01" "\xff") (str.to.re "\u{09}")) (re.diff (re.range "\x01" "\xff") (str.to.re "\u{0c}")))))))))))) ((_ re.capture 9) (re.++ ((_ re.capture 10) (re.++ (str.to.re "w") (re.++ (str.to.re "w") (re.++ (str.to.re "w") (re.range "\x01" "\xff"))))) ((_ re.capture 11) (re.* (re.inter (re.diff (re.range "\x01" "\xff") (str.to.re "\u{20}")) (re.inter (re.diff (re.range "\x01" "\xff") (str.to.re "\u{0a}")) (re.inter (re.diff (re.range "\x01" "\xff") (str.to.re "\u{0b}")) (re.inter (re.diff (re.range "\x01" "\xff") (str.to.re "\u{0d}")) (re.inter (re.diff (re.range "\x01" "\xff") (str.to.re "\u{09}")) (re.diff (re.range "\x01" "\xff") (str.to.re "\u{0c}")))))))))))) re.all))) (str.to.re "\x00"))))
;match[1]!==null
(assert (str.in.re ((_ str.extract 1) var0 (re.++ (re.*? re.allchar) (re.++ (re.union ((_ re.capture 1) (re.++ ((_ re.capture 2) (re.union (re.union (re.union (re.union (re.union (re.++ ((_ re.capture 3) (re.* (str.to.re "s"))) (re.++ ((_ re.capture 4) (re.++ (str.to.re "f") (re.++ (str.to.re "t") (str.to.re "p")))) ((_ re.capture 5) (re.* (str.to.re "s"))))) (re.++ ((_ re.capture 6) (re.++ (str.to.re "h") (re.++ (str.to.re "t") (re.++ (str.to.re "t") (str.to.re "p"))))) ((_ re.capture 7) (re.* (str.to.re "s"))))) (re.++ (str.to.re "m") (re.++ (str.to.re "a") (re.++ (str.to.re "i") (re.++ (str.to.re "l") (re.++ (str.to.re "t") (str.to.re "o"))))))) (re.++ (str.to.re "n") (re.++ (str.to.re "e") (re.++ (str.to.re "w") (str.to.re "s"))))) (re.++ (str.to.re "f") (re.++ (str.to.re "i") (re.++ (str.to.re "l") (str.to.re "e"))))) (re.++ (str.to.re "w") (re.++ (str.to.re "e") (re.++ (str.to.re "b") (re.++ (str.to.re "c") (re.++ (str.to.re "a") (str.to.re "l")))))))) (re.++ (str.to.re ":") ((_ re.capture 8) (re.* (re.inter (re.diff (re.range "\x01" "\xff") (str.to.re "\u{20}")) (re.inter (re.diff (re.range "\x01" "\xff") (str.to.re "\u{0a}")) (re.inter (re.diff (re.range "\x01" "\xff") (str.to.re "\u{0b}")) (re.inter (re.diff (re.range "\x01" "\xff") (str.to.re "\u{0d}")) (re.inter (re.diff (re.range "\x01" "\xff") (str.to.re "\u{09}")) (re.diff (re.range "\x01" "\xff") (str.to.re "\u{0c}")))))))))))) ((_ re.capture 9) (re.++ ((_ re.capture 10) (re.++ (str.to.re "w") (re.++ (str.to.re "w") (re.++ (str.to.re "w") (re.range "\x01" "\xff"))))) ((_ re.capture 11) (re.* (re.inter (re.diff (re.range "\x01" "\xff") (str.to.re "\u{20}")) (re.inter (re.diff (re.range "\x01" "\xff") (str.to.re "\u{0a}")) (re.inter (re.diff (re.range "\x01" "\xff") (str.to.re "\u{0b}")) (re.inter (re.diff (re.range "\x01" "\xff") (str.to.re "\u{0d}")) (re.inter (re.diff (re.range "\x01" "\xff") (str.to.re "\u{09}")) (re.diff (re.range "\x01" "\xff") (str.to.re "\u{0c}")))))))))))) re.all))) (re.++ re.all(re.+ (re.range "a" "z")) re.all) ))
;/[a-z]+/.test(match[1]) == true
(check-sat)
(get-model)
(pop 1)
(push 1)
(assert (str.in.re var0 (re.* (re.range "\x01" "\xff"))))
(assert (str.in.re var0 (re.++ (re.*? re.allchar) (re.++ (re.union ((_ re.capture 1) (re.++ ((_ re.capture 2) (re.union (re.union (re.union (re.union (re.union (re.++ ((_ re.capture 3) (re.* (str.to.re "s"))) (re.++ ((_ re.capture 4) (re.++ (str.to.re "f") (re.++ (str.to.re "t") (str.to.re "p")))) ((_ re.capture 5) (re.* (str.to.re "s"))))) (re.++ ((_ re.capture 6) (re.++ (str.to.re "h") (re.++ (str.to.re "t") (re.++ (str.to.re "t") (str.to.re "p"))))) ((_ re.capture 7) (re.* (str.to.re "s"))))) (re.++ (str.to.re "m") (re.++ (str.to.re "a") (re.++ (str.to.re "i") (re.++ (str.to.re "l") (re.++ (str.to.re "t") (str.to.re "o"))))))) (re.++ (str.to.re "n") (re.++ (str.to.re "e") (re.++ (str.to.re "w") (str.to.re "s"))))) (re.++ (str.to.re "f") (re.++ (str.to.re "i") (re.++ (str.to.re "l") (str.to.re "e"))))) (re.++ (str.to.re "w") (re.++ (str.to.re "e") (re.++ (str.to.re "b") (re.++ (str.to.re "c") (re.++ (str.to.re "a") (str.to.re "l")))))))) (re.++ (str.to.re ":") ((_ re.capture 8) (re.* (re.inter (re.diff (re.range "\x01" "\xff") (str.to.re "\u{20}")) (re.inter (re.diff (re.range "\x01" "\xff") (str.to.re "\u{0a}")) (re.inter (re.diff (re.range "\x01" "\xff") (str.to.re "\u{0b}")) (re.inter (re.diff (re.range "\x01" "\xff") (str.to.re "\u{0d}")) (re.inter (re.diff (re.range "\x01" "\xff") (str.to.re "\u{09}")) (re.diff (re.range "\x01" "\xff") (str.to.re "\u{0c}")))))))))))) ((_ re.capture 9) (re.++ ((_ re.capture 10) (re.++ (str.to.re "w") (re.++ (str.to.re "w") (re.++ (str.to.re "w") (re.range "\x01" "\xff"))))) ((_ re.capture 11) (re.* (re.inter (re.diff (re.range "\x01" "\xff") (str.to.re "\u{20}")) (re.inter (re.diff (re.range "\x01" "\xff") (str.to.re "\u{0a}")) (re.inter (re.diff (re.range "\x01" "\xff") (str.to.re "\u{0b}")) (re.inter (re.diff (re.range "\x01" "\xff") (str.to.re "\u{0d}")) (re.inter (re.diff (re.range "\x01" "\xff") (str.to.re "\u{09}")) (re.diff (re.range "\x01" "\xff") (str.to.re "\u{0c}")))))))))))) re.all))))	; match!==null
(assert (not (str.in.re ((_ str.extract 1) var0 (re.++ (re.*? re.allchar) (re.++ (re.union ((_ re.capture 1) (re.++ ((_ re.capture 2) (re.union (re.union (re.union (re.union (re.union (re.++ ((_ re.capture 3) (re.* (str.to.re "s"))) (re.++ ((_ re.capture 4) (re.++ (str.to.re "f") (re.++ (str.to.re "t") (str.to.re "p")))) ((_ re.capture 5) (re.* (str.to.re "s"))))) (re.++ ((_ re.capture 6) (re.++ (str.to.re "h") (re.++ (str.to.re "t") (re.++ (str.to.re "t") (str.to.re "p"))))) ((_ re.capture 7) (re.* (str.to.re "s"))))) (re.++ (str.to.re "m") (re.++ (str.to.re "a") (re.++ (str.to.re "i") (re.++ (str.to.re "l") (re.++ (str.to.re "t") (str.to.re "o"))))))) (re.++ (str.to.re "n") (re.++ (str.to.re "e") (re.++ (str.to.re "w") (str.to.re "s"))))) (re.++ (str.to.re "f") (re.++ (str.to.re "i") (re.++ (str.to.re "l") (str.to.re "e"))))) (re.++ (str.to.re "w") (re.++ (str.to.re "e") (re.++ (str.to.re "b") (re.++ (str.to.re "c") (re.++ (str.to.re "a") (str.to.re "l")))))))) (re.++ (str.to.re ":") ((_ re.capture 8) (re.* (re.inter (re.diff (re.range "\x01" "\xff") (str.to.re "\u{20}")) (re.inter (re.diff (re.range "\x01" "\xff") (str.to.re "\u{0a}")) (re.inter (re.diff (re.range "\x01" "\xff") (str.to.re "\u{0b}")) (re.inter (re.diff (re.range "\x01" "\xff") (str.to.re "\u{0d}")) (re.inter (re.diff (re.range "\x01" "\xff") (str.to.re "\u{09}")) (re.diff (re.range "\x01" "\xff") (str.to.re "\u{0c}")))))))))))) ((_ re.capture 9) (re.++ ((_ re.capture 10) (re.++ (str.to.re "w") (re.++ (str.to.re "w") (re.++ (str.to.re "w") (re.range "\x01" "\xff"))))) ((_ re.capture 11) (re.* (re.inter (re.diff (re.range "\x01" "\xff") (str.to.re "\u{20}")) (re.inter (re.diff (re.range "\x01" "\xff") (str.to.re "\u{0a}")) (re.inter (re.diff (re.range "\x01" "\xff") (str.to.re "\u{0b}")) (re.inter (re.diff (re.range "\x01" "\xff") (str.to.re "\u{0d}")) (re.inter (re.diff (re.range "\x01" "\xff") (str.to.re "\u{09}")) (re.diff (re.range "\x01" "\xff") (str.to.re "\u{0c}")))))))))))) re.all))) (str.to.re "\x00"))))	
;match[1]!==null
(assert (not (str.in.re ((_ str.extract 1) var0 (re.++ (re.*? re.allchar) (re.++ (re.union ((_ re.capture 1) (re.++ ((_ re.capture 2) (re.union (re.union (re.union (re.union (re.union (re.++ ((_ re.capture 3) (re.* (str.to.re "s"))) (re.++ ((_ re.capture 4) (re.++ (str.to.re "f") (re.++ (str.to.re "t") (str.to.re "p")))) ((_ re.capture 5) (re.* (str.to.re "s"))))) (re.++ ((_ re.capture 6) (re.++ (str.to.re "h") (re.++ (str.to.re "t") (re.++ (str.to.re "t") (str.to.re "p"))))) ((_ re.capture 7) (re.* (str.to.re "s"))))) (re.++ (str.to.re "m") (re.++ (str.to.re "a") (re.++ (str.to.re "i") (re.++ (str.to.re "l") (re.++ (str.to.re "t") (str.to.re "o"))))))) (re.++ (str.to.re "n") (re.++ (str.to.re "e") (re.++ (str.to.re "w") (str.to.re "s"))))) (re.++ (str.to.re "f") (re.++ (str.to.re "i") (re.++ (str.to.re "l") (str.to.re "e"))))) (re.++ (str.to.re "w") (re.++ (str.to.re "e") (re.++ (str.to.re "b") (re.++ (str.to.re "c") (re.++ (str.to.re "a") (str.to.re "l")))))))) (re.++ (str.to.re ":") ((_ re.capture 8) (re.* (re.inter (re.diff (re.range "\x01" "\xff") (str.to.re "\u{20}")) (re.inter (re.diff (re.range "\x01" "\xff") (str.to.re "\u{0a}")) (re.inter (re.diff (re.range "\x01" "\xff") (str.to.re "\u{0b}")) (re.inter (re.diff (re.range "\x01" "\xff") (str.to.re "\u{0d}")) (re.inter (re.diff (re.range "\x01" "\xff") (str.to.re "\u{09}")) (re.diff (re.range "\x01" "\xff") (str.to.re "\u{0c}")))))))))))) ((_ re.capture 9) (re.++ ((_ re.capture 10) (re.++ (str.to.re "w") (re.++ (str.to.re "w") (re.++ (str.to.re "w") (re.range "\x01" "\xff"))))) ((_ re.capture 11) (re.* (re.inter (re.diff (re.range "\x01" "\xff") (str.to.re "\u{20}")) (re.inter (re.diff (re.range "\x01" "\xff") (str.to.re "\u{0a}")) (re.inter (re.diff (re.range "\x01" "\xff") (str.to.re "\u{0b}")) (re.inter (re.diff (re.range "\x01" "\xff") (str.to.re "\u{0d}")) (re.inter (re.diff (re.range "\x01" "\xff") (str.to.re "\u{09}")) (re.diff (re.range "\x01" "\xff") (str.to.re "\u{0c}")))))))))))) re.all))) (re.++ re.all(re.+ (re.range "a" "z")) re.all) )))
;/[a-z]+/.test(match[1]) == false	
(check-sat)
(get-model)
(pop 1)
(push 1)
(assert (str.in.re var0 (re.* (re.range "\x01" "\xff"))))
(assert (str.in.re var0 (re.++ (re.*? re.allchar) (re.++ (re.union ((_ re.capture 1) (re.++ ((_ re.capture 2) (re.union (re.union (re.union (re.union (re.union (re.++ ((_ re.capture 3) (re.* (str.to.re "s"))) (re.++ ((_ re.capture 4) (re.++ (str.to.re "f") (re.++ (str.to.re "t") (str.to.re "p")))) ((_ re.capture 5) (re.* (str.to.re "s"))))) (re.++ ((_ re.capture 6) (re.++ (str.to.re "h") (re.++ (str.to.re "t") (re.++ (str.to.re "t") (str.to.re "p"))))) ((_ re.capture 7) (re.* (str.to.re "s"))))) (re.++ (str.to.re "m") (re.++ (str.to.re "a") (re.++ (str.to.re "i") (re.++ (str.to.re "l") (re.++ (str.to.re "t") (str.to.re "o"))))))) (re.++ (str.to.re "n") (re.++ (str.to.re "e") (re.++ (str.to.re "w") (str.to.re "s"))))) (re.++ (str.to.re "f") (re.++ (str.to.re "i") (re.++ (str.to.re "l") (str.to.re "e"))))) (re.++ (str.to.re "w") (re.++ (str.to.re "e") (re.++ (str.to.re "b") (re.++ (str.to.re "c") (re.++ (str.to.re "a") (str.to.re "l")))))))) (re.++ (str.to.re ":") ((_ re.capture 8) (re.* (re.inter (re.diff (re.range "\x01" "\xff") (str.to.re "\u{20}")) (re.inter (re.diff (re.range "\x01" "\xff") (str.to.re "\u{0a}")) (re.inter (re.diff (re.range "\x01" "\xff") (str.to.re "\u{0b}")) (re.inter (re.diff (re.range "\x01" "\xff") (str.to.re "\u{0d}")) (re.inter (re.diff (re.range "\x01" "\xff") (str.to.re "\u{09}")) (re.diff (re.range "\x01" "\xff") (str.to.re "\u{0c}")))))))))))) ((_ re.capture 9) (re.++ ((_ re.capture 10) (re.++ (str.to.re "w") (re.++ (str.to.re "w") (re.++ (str.to.re "w") (re.range "\x01" "\xff"))))) ((_ re.capture 11) (re.* (re.inter (re.diff (re.range "\x01" "\xff") (str.to.re "\u{20}")) (re.inter (re.diff (re.range "\x01" "\xff") (str.to.re "\u{0a}")) (re.inter (re.diff (re.range "\x01" "\xff") (str.to.re "\u{0b}")) (re.inter (re.diff (re.range "\x01" "\xff") (str.to.re "\u{0d}")) (re.inter (re.diff (re.range "\x01" "\xff") (str.to.re "\u{09}")) (re.diff (re.range "\x01" "\xff") (str.to.re "\u{0c}")))))))))))) re.all))))	; match!==null
(assert (str.in.re ((_ str.extract 1) var0 (re.++ (re.*? re.allchar) (re.++ (re.union ((_ re.capture 1) (re.++ ((_ re.capture 2) (re.union (re.union (re.union (re.union (re.union (re.++ ((_ re.capture 3) (re.* (str.to.re "s"))) (re.++ ((_ re.capture 4) (re.++ (str.to.re "f") (re.++ (str.to.re "t") (str.to.re "p")))) ((_ re.capture 5) (re.* (str.to.re "s"))))) (re.++ ((_ re.capture 6) (re.++ (str.to.re "h") (re.++ (str.to.re "t") (re.++ (str.to.re "t") (str.to.re "p"))))) ((_ re.capture 7) (re.* (str.to.re "s"))))) (re.++ (str.to.re "m") (re.++ (str.to.re "a") (re.++ (str.to.re "i") (re.++ (str.to.re "l") (re.++ (str.to.re "t") (str.to.re "o"))))))) (re.++ (str.to.re "n") (re.++ (str.to.re "e") (re.++ (str.to.re "w") (str.to.re "s"))))) (re.++ (str.to.re "f") (re.++ (str.to.re "i") (re.++ (str.to.re "l") (str.to.re "e"))))) (re.++ (str.to.re "w") (re.++ (str.to.re "e") (re.++ (str.to.re "b") (re.++ (str.to.re "c") (re.++ (str.to.re "a") (str.to.re "l")))))))) (re.++ (str.to.re ":") ((_ re.capture 8) (re.* (re.inter (re.diff (re.range "\x01" "\xff") (str.to.re "\u{20}")) (re.inter (re.diff (re.range "\x01" "\xff") (str.to.re "\u{0a}")) (re.inter (re.diff (re.range "\x01" "\xff") (str.to.re "\u{0b}")) (re.inter (re.diff (re.range "\x01" "\xff") (str.to.re "\u{0d}")) (re.inter (re.diff (re.range "\x01" "\xff") (str.to.re "\u{09}")) (re.diff (re.range "\x01" "\xff") (str.to.re "\u{0c}")))))))))))) ((_ re.capture 9) (re.++ ((_ re.capture 10) (re.++ (str.to.re "w") (re.++ (str.to.re "w") (re.++ (str.to.re "w") (re.range "\x01" "\xff"))))) ((_ re.capture 11) (re.* (re.inter (re.diff (re.range "\x01" "\xff") (str.to.re "\u{20}")) (re.inter (re.diff (re.range "\x01" "\xff") (str.to.re "\u{0a}")) (re.inter (re.diff (re.range "\x01" "\xff") (str.to.re "\u{0b}")) (re.inter (re.diff (re.range "\x01" "\xff") (str.to.re "\u{0d}")) (re.inter (re.diff (re.range "\x01" "\xff") (str.to.re "\u{09}")) (re.diff (re.range "\x01" "\xff") (str.to.re "\u{0c}")))))))))))) re.all))) (str.to.re "\x00")))
;match[1]==null
(check-sat)
(get-model)
(pop 1)
(push 1)
(assert (str.in.re var0 (re.* (re.range "\x01" "\xff"))))
(assert (not (str.in.re var0 (re.++ (re.*? re.allchar) (re.++ (re.union ((_ re.capture 1) (re.++ ((_ re.capture 2) (re.union (re.union (re.union (re.union (re.union (re.++ ((_ re.capture 3) (re.* (str.to.re "s"))) (re.++ ((_ re.capture 4) (re.++ (str.to.re "f") (re.++ (str.to.re "t") (str.to.re "p")))) ((_ re.capture 5) (re.* (str.to.re "s"))))) (re.++ ((_ re.capture 6) (re.++ (str.to.re "h") (re.++ (str.to.re "t") (re.++ (str.to.re "t") (str.to.re "p"))))) ((_ re.capture 7) (re.* (str.to.re "s"))))) (re.++ (str.to.re "m") (re.++ (str.to.re "a") (re.++ (str.to.re "i") (re.++ (str.to.re "l") (re.++ (str.to.re "t") (str.to.re "o"))))))) (re.++ (str.to.re "n") (re.++ (str.to.re "e") (re.++ (str.to.re "w") (str.to.re "s"))))) (re.++ (str.to.re "f") (re.++ (str.to.re "i") (re.++ (str.to.re "l") (str.to.re "e"))))) (re.++ (str.to.re "w") (re.++ (str.to.re "e") (re.++ (str.to.re "b") (re.++ (str.to.re "c") (re.++ (str.to.re "a") (str.to.re "l")))))))) (re.++ (str.to.re ":") ((_ re.capture 8) (re.* (re.inter (re.diff (re.range "\x01" "\xff") (str.to.re "\u{20}")) (re.inter (re.diff (re.range "\x01" "\xff") (str.to.re "\u{0a}")) (re.inter (re.diff (re.range "\x01" "\xff") (str.to.re "\u{0b}")) (re.inter (re.diff (re.range "\x01" "\xff") (str.to.re "\u{0d}")) (re.inter (re.diff (re.range "\x01" "\xff") (str.to.re "\u{09}")) (re.diff (re.range "\x01" "\xff") (str.to.re "\u{0c}")))))))))))) ((_ re.capture 9) (re.++ ((_ re.capture 10) (re.++ (str.to.re "w") (re.++ (str.to.re "w") (re.++ (str.to.re "w") (re.range "\x01" "\xff"))))) ((_ re.capture 11) (re.* (re.inter (re.diff (re.range "\x01" "\xff") (str.to.re "\u{20}")) (re.inter (re.diff (re.range "\x01" "\xff") (str.to.re "\u{0a}")) (re.inter (re.diff (re.range "\x01" "\xff") (str.to.re "\u{0b}")) (re.inter (re.diff (re.range "\x01" "\xff") (str.to.re "\u{0d}")) (re.inter (re.diff (re.range "\x01" "\xff") (str.to.re "\u{09}")) (re.diff (re.range "\x01" "\xff") (str.to.re "\u{0c}")))))))))))) re.all)))))	; match == null
(check-sat)
(get-model)
(pop 1)
(exit)
